\* Problema_do_Custo_de_Transporte *\
Minimize
OBJ: 750 Vagao_Granel + 890 Vagao_Tanque
Subject To
_C1: Vagao_Granel + Vagao_Tanque <= 70
_C2: Vagao_Granel >= 0
_C3: Vagao_Tanque >= 0
_C4: 105000 Vagao_Granel >= 4000000
_C5: 70000 Vagao_Tanque >= 2000000
Bounds
Vagao_Granel free
Vagao_Tanque free
Generals
Vagao_Granel
Vagao_Tanque
End
